
220.0
220.0
220.0
220.0
220.0
220.0
220.0
250.0
220.0
220.0
220.0
220.0
220.0
220.0
260.0
220.0
220.0
220.0
220.0
220.0
230.0
220.0
220.0
410.0
220.0
220.0
220.0
220.0
220.0
220.0
220.0
220.0
220.0
240.0
220.0
230.0
230.0
220.0
220.0
220.0
220.0
220.0
220.0
220.0
220.0
220.0
240.0
270.0
220.0
220.0
220.0
220.0
220.0
220.0
220.0
220.0
220.0
370.0
310.0
220.0
220.0
220.0
220.0
220.0
220.0
220.0
220.0
240.0
230.0
220.0
220.0
220.0
270.0
220.0
240.0
220.0
220.0
220.0
220.0
220.0